N = 37;
MinK = 6;
Capacity = 100;

X = array1d(0..37, [64, 16, 2, 28, 16, 39, 35, 43, 44, 37, 17, 34, 45, 11, 35, 21, 41, 51, 17, 36, 20, 35, 37, 17, 46, 40, 43, 40, 29, 45, 0, 42, 30, 17, 46, 0, 51, 5]);
Y = array1d(0..37, [75, 97, 79, 79, 3, 20, 65, 21, 0, 67, 100, 80, 7, 83, 88, 98, 72, 0, 9, 66, 105, 85, 75, 11, 6, 23, 73, 21, 85, 6, 24, 66, 81, 9, 4, 85, 2, 80]);

Demands = [18, 10, 16, 12, 21, 23, 15, 25, 3, 6, 7, 4, 20, 25, 20, 12, 3, 12, 14, 26, 9, 22, 20, 9, 13, 21, 10, 8, 5, 14, 7, 21, 20, 1, 21, 17, 2];
